c "460337.clq"
p edge 141 548
e 1 5
e 1 6
e 1 7
e 1 10
e 1 11
e 1 13
e 1 26
e 1 27
e 1 37
e 1 39
e 1 43
e 1 45
e 1 46
e 1 48
e 1 58
e 1 72
e 1 79
e 1 83
e 1 115
e 1 128
e 1 134
e 1 139
e 2 5
e 2 25
e 2 33
e 2 35
e 2 68
e 2 95
e 2 105
e 2 113
e 3 5
e 3 6
e 3 7
e 3 14
e 3 15
e 3 20
e 3 22
e 3 23
e 3 24
e 3 25
e 3 32
e 3 42
e 3 61
e 3 64
e 3 72
e 3 87
e 3 92
e 3 101
e 3 103
e 3 112
e 3 115
e 3 117
e 3 121
e 3 125
e 3 129
e 3 133
e 3 135
e 3 136
e 3 141
e 4 5
e 4 6
e 4 8
e 4 14
e 4 30
e 4 50
e 4 56
e 4 90
e 4 93
e 4 95
e 5 6
e 5 7
e 5 8
e 5 9
e 5 10
e 5 11
e 5 12
e 5 13
e 5 17
e 5 20
e 5 22
e 5 23
e 5 31
e 5 44
e 5 45
e 5 51
e 5 52
e 5 54
e 5 56
e 5 61
e 5 70
e 5 76
e 5 85
e 5 89
e 5 96
e 5 99
e 5 103
e 5 130
e 5 141
e 6 7
e 6 8
e 6 9
e 6 10
e 6 13
e 6 14
e 6 18
e 6 20
e 6 21
e 6 22
e 6 32
e 6 35
e 6 36
e 6 38
e 6 44
e 6 49
e 6 50
e 6 56
e 6 59
e 6 62
e 6 74
e 6 89
e 6 91
e 6 99
e 6 103
e 6 108
e 6 112
e 6 124
e 6 126
e 6 134
e 6 137
e 6 138
e 7 8
e 7 9
e 7 12
e 7 15
e 7 16
e 7 21
e 7 27
e 7 28
e 7 30
e 7 31
e 7 33
e 7 34
e 7 40
e 7 42
e 7 45
e 7 65
e 7 74
e 7 77
e 7 88
e 7 90
e 7 96
e 7 105
e 7 113
e 7 117
e 7 118
e 7 122
e 7 128
e 7 140
e 8 9
e 8 10
e 8 11
e 8 12
e 8 13
e 8 15
e 8 16
e 8 17
e 8 19
e 8 26
e 8 31
e 8 34
e 8 46
e 8 68
e 8 70
e 8 78
e 8 121
e 8 138
e 9 16
e 9 18
e 9 29
e 9 78
e 9 93
e 9 96
e 9 104
e 9 108
e 9 122
e 10 11
e 10 25
e 10 38
e 10 48
e 10 57
e 10 65
e 10 73
e 10 75
e 10 129
e 11 12
e 11 16
e 11 18
e 11 28
e 11 32
e 11 33
e 11 40
e 11 41
e 11 43
e 11 46
e 11 67
e 11 74
e 11 122
e 11 129
e 12 17
e 12 18
e 12 22
e 12 24
e 12 36
e 12 37
e 12 39
e 12 42
e 12 52
e 12 62
e 12 63
e 12 83
e 12 88
e 12 91
e 12 103
e 12 104
e 12 106
e 12 130
e 12 141
e 13 14
e 13 21
e 13 23
e 13 28
e 13 30
e 13 35
e 13 75
e 13 86
e 13 99
e 13 110
e 14 15
e 14 19
e 14 21
e 14 24
e 14 26
e 14 44
e 14 47
e 14 49
e 14 67
e 14 71
e 14 105
e 14 114
e 14 123
e 15 25
e 15 34
e 15 48
e 15 50
e 15 57
e 15 85
e 15 94
e 16 17
e 16 19
e 16 20
e 16 24
e 16 27
e 16 36
e 16 53
e 16 55
e 16 63
e 16 75
e 16 83
e 16 84
e 17 19
e 17 23
e 17 26
e 17 40
e 17 62
e 17 79
e 17 80
e 17 104
e 17 115
e 17 119
e 18 90
e 19 76
e 19 101
e 19 120
e 19 133
e 20 28
e 20 40
e 20 42
e 20 51
e 20 56
e 20 60
e 20 69
e 20 73
e 20 100
e 20 107
e 20 132
e 20 139
e 21 47
e 21 82
e 21 95
e 21 132
e 21 136
e 22 29
e 22 37
e 22 49
e 22 50
e 22 52
e 22 53
e 22 59
e 22 60
e 22 69
e 22 101
e 22 102
e 22 111
e 22 135
e 23 27
e 23 29
e 23 39
e 23 47
e 23 53
e 23 54
e 23 77
e 23 79
e 23 89
e 23 108
e 23 128
e 24 32
e 24 48
e 24 51
e 24 68
e 24 84
e 24 92
e 24 106
e 24 117
e 25 89
e 25 127
e 25 131
e 26 29
e 26 30
e 26 33
e 26 36
e 26 60
e 26 64
e 26 67
e 26 73
e 26 78
e 26 90
e 26 92
e 26 137
e 27 38
e 27 41
e 27 55
e 27 58
e 27 64
e 27 75
e 28 31
e 28 38
e 28 45
e 28 127
e 29 125
e 30 34
e 30 66
e 30 82
e 30 86
e 30 88
e 30 119
e 31 63
e 31 65
e 31 81
e 31 83
e 31 87
e 31 105
e 31 116
e 32 35
e 32 39
e 32 43
e 32 59
e 32 72
e 32 79
e 32 129
e 33 43
e 33 53
e 33 61
e 33 66
e 33 116
e 33 132
e 35 37
e 35 57
e 35 70
e 35 140
e 36 94
e 36 102
e 36 115
e 36 139
e 37 41
e 37 66
e 37 73
e 37 107
e 37 134
e 38 41
e 38 46
e 38 49
e 38 52
e 38 69
e 38 81
e 38 82
e 38 97
e 38 108
e 38 109
e 38 117
e 38 130
e 39 57
e 39 104
e 39 106
e 39 111
e 40 54
e 40 59
e 40 65
e 41 44
e 41 93
e 41 99
e 41 110
e 41 119
e 41 137
e 43 51
e 43 55
e 43 68
e 43 97
e 43 131
e 44 58
e 44 61
e 44 71
e 44 98
e 46 47
e 46 100
e 46 109
e 47 123
e 48 62
e 48 64
e 48 77
e 48 78
e 48 85
e 48 98
e 48 100
e 48 120
e 48 121
e 48 134
e 49 88
e 49 109
e 49 116
e 50 55
e 50 81
e 50 86
e 50 135
e 51 67
e 51 100
e 52 58
e 52 63
e 52 112
e 53 54
e 53 86
e 53 107
e 53 109
e 53 139
e 54 70
e 55 123
e 56 84
e 56 94
e 57 60
e 57 80
e 57 131
e 58 66
e 60 69
e 60 76
e 60 118
e 60 140
e 61 110
e 62 81
e 62 85
e 62 87
e 62 97
e 62 132
e 63 107
e 64 126
e 65 122
e 66 95
e 67 93
e 68 71
e 68 87
e 69 71
e 69 80
e 70 72
e 71 76
e 71 92
e 72 80
e 72 114
e 73 74
e 74 96
e 74 102
e 75 91
e 76 77
e 76 84
e 76 94
e 76 120
e 77 102
e 79 82
e 79 118
e 79 136
e 80 97
e 80 112
e 80 116
e 80 133
e 83 119
e 84 113
e 85 123
e 87 98
e 87 106
e 87 124
e 87 125
e 89 91
e 90 101
e 91 98
e 91 128
e 94 113
e 96 114
e 96 118
e 96 127
e 97 124
e 101 110
e 102 114
e 102 120
e 104 124
e 104 126
e 104 135
e 105 136
e 107 111
e 107 125
e 109 111
e 110 126
e 111 127
e 112 141
e 113 130
e 113 133
e 117 131
e 117 138
e 120 121
e 129 138
e 132 137
e 134 140
